examples/inputs/input6.dzn
n = 12;
l = 16;
s = 14;
r = 16;
f = 20;
forbidden = [| 4, 5
	| 5, 6
	| 12, 6
	| 4, 12
	| 9, 11
	| 8, 10
	| 6, 12
	| 11, 8
	| 3, 5
	| 12, 9
	| 6, 7
	| 1, 3
	| 9, 9
	| 7, 10
	| 6, 9
	| 10, 3
	| 2, 7
	| 9, 12
	| 3, 7
	| 7, 7
	|];