examples/inputs/input6.lp
#const n = 12.
#const l = 16.
#const s = 14.
#const r = 16.
#const f = 20.
val(4, 5, xxx).
val(5, 6, xxx).
val(12, 6, xxx).
val(4, 12, xxx).
val(9, 11, xxx).
val(8, 10, xxx).
val(6, 12, xxx).
val(11, 8, xxx).
val(3, 5, xxx).
val(12, 9, xxx).
val(6, 7, xxx).
val(1, 3, xxx).
val(9, 9, xxx).
val(7, 10, xxx).
val(6, 9, xxx).
val(10, 3, xxx).
val(2, 7, xxx).
val(9, 12, xxx).
val(3, 7, xxx).
val(7, 7, xxx).